
Gurobi 11.0.1 (win64) logging started Wed May 15 14:42:34 2024

Set parameter LogFile to value "output/solver_log10.txt"
Gurobi Optimizer version 11.0.1 build v11.0.1rc0 (win64 - Windows 11.0 (22631.2))

CPU model: 11th Gen Intel(R) Core(TM) i7-1165G7 @ 2.80GHz, instruction set [SSE2|AVX|AVX2|AVX512]
Thread count: 4 physical cores, 8 logical processors, using up to 8 threads

Optimize a model with 2159 rows, 396 columns and 40074 nonzeros
Model fingerprint: 0x35fee672
Variable types: 248 continuous, 148 integer (148 binary)
Coefficient statistics:
  Matrix range     [4e-01, 1e+05]
  Objective range  [1e+00, 1e+02]
  Bounds range     [1e+00, 1e+00]
  RHS range        [1e-02, 1e+05]

User MIP start produced solution with objective 39812.3 (0.00s)
User MIP start produced solution with objective 39812.3 (0.01s)
Loaded user MIP start with objective 39812.3

Presolve removed 89 rows and 91 columns
Presolve time: 0.04s
Presolved: 2070 rows, 305 columns, 39546 nonzeros
Variable types: 235 continuous, 70 integer (70 binary)

Root relaxation: objective 4.186790e+04, 620 iterations, 0.03 seconds (0.07 work units)

    Nodes    |    Current Node    |     Objective Bounds      |     Work
 Expl Unexpl |  Obj  Depth IntInf | Incumbent    BestBd   Gap | It/Node Time

     0     0 41867.8983    0   12 39812.3270 41867.8983  5.16%     -    0s
     0     0 41545.6857    0   11 39812.3270 41545.6857  4.35%     -    0s
     0     0 40885.4083    0   17 39812.3270 40885.4083  2.70%     -    0s
     0     0 40547.8458    0   13 39812.3270 40547.8458  1.85%     -    0s
     0     0 40547.8458    0   13 39812.3270 40547.8458  1.85%     -    0s
     0     0 40531.7869    0   15 39812.3270 40531.7869  1.81%     -    0s
     0     0 40425.6718    0   13 39812.3270 40425.6718  1.54%     -    0s
     0     0 40399.9075    0   15 39812.3270 40399.9075  1.48%     -    0s
     0     0 40398.9098    0   16 39812.3270 40398.9098  1.47%     -    0s
     0     0 40350.4873    0   17 39812.3270 40350.4873  1.35%     -    0s
     0     0 40324.7041    0   17 39812.3270 40324.7041  1.29%     -    0s
     0     0 40324.7041    0   18 39812.3270 40324.7041  1.29%     -    0s
     0     0 40324.7041    0   17 39812.3270 40324.7041  1.29%     -    0s
H    0     0                    39816.974719 40324.3348  1.27%     -    0s
     0     0 40324.3348    0   19 39816.9747 40324.3348  1.27%     -    0s
     0     0 39856.2915    0    5 39816.9747 39856.2915  0.10%     -    0s
     0     0 39856.2915    0    6 39816.9747 39856.2915  0.10%     -    0s
     0     0 39856.2915    0    7 39816.9747 39856.2915  0.10%     -    0s
     0     0 39817.9918    0    8 39816.9747 39817.9918  0.00%     -    0s

Cutting planes:
  Gomory: 2
  Implied bound: 2
  MIR: 11
  RLT: 1

Explored 1 nodes (2931 simplex iterations) in 0.66 seconds (0.86 work units)
Thread count was 8 (of 8 available processors)

Solution count 3: 39817 39817 39812.3 

Optimal solution found (tolerance 1.00e-04)
Best objective 3.981697471860e+04, best bound 3.981799178351e+04, gap 0.0026%
